86 1634
7 8 10 13 17 22 24 26 27 28 30 31 32 34 36 37 40 41 42 44 45 49 50 52 54 56 60 65 69 70 71 72 75 76 81
2 7 9 12 13 14 16 17 18 20 21 22 23 26 27 31 32 33 34 35 36 38 40 41 43 46 48 53 55 56 59 60 61 62 67 70 71 75 76 77 78 82 84 85
1 4 6 7 11 14 15 16 17 18 19 22 27 28 29 30 34 35 37 39 40 43 44 46 49 51 52 53 54 55 61 66 68 69 73 74 77 83 85
7 9 10 12 13 18 19 20 22 23 24 26 27 30 31 34 38 42 43 45 47 48 49 50 52 54 55 57 58 60 62 63 64 66 67 69 70 72 73 80 81 83
2 5 7 10 12 13 14 16 20 21 26 29 30 32 33 36 38 40 44 45 47 49 53 54 55 56 57 61 62 64 66 74 75 83
4 6 8 11 12 15 26 27 29 32 33 36 37 38 39 40 44 45 46 47 49 53 54 57 58 61 64 67 71 73 74 78 79 81 84
2 5 11 15 17 20 22 24 29 30 31 38 40 42 52 61 66 67 69 71 74 75 76 77 78 81 83 84
0 1 2 3 4 8 9 10 13 14 17 18 21 24 29 31 32 33 34 36 40 41 44 45 50 51 53 54 56 57 58 59 65 67 68 70 72 78 80 84
0 5 7 10 13 14 16 18 20 21 23 24 27 29 30 31 32 34 40 41 43 44 46 48 50 55 56 57 58 59 60 63 65 67 69 70 75 76 80 82 83 84
1 3 7 12 13 15 19 22 23 24 25 26 27 28 29 30 32 35 36 41 47 48 49 56 59 60 62 64 65 68 69 70 71 72 74 77 78 80 85
0 3 4 7 8 11 15 16 17 18 19 21 22 26 30 32 36 37 44 45 47 48 49 50 52 57 62 63 65 67 68 70 71 72 77 80 82 83
2 5 6 10 15 16 18 19 24 25 27 30 32 34 35 36 39 40 43 44 45 46 47 50 52 55 58 59 60 62 64 65 66 67 68 69 71 76 77 78 79
1 3 4 5 9 15 17 18 19 28 29 31 32 33 35 41 42 44 45 48 49 50 53 54 55 56 61 63 65 67 68 70 72 73 74 76 78 81 84 85
0 1 3 4 7 8 9 14 16 20 22 23 25 26 29 33 34 36 38 39 40 42 45 46 47 50 53 55 56 62 64 67 71 72 76 78 81 82 83 84 85
1 2 4 7 8 13 15 16 17 22 25 26 31 34 36 37 38 39 40 41 43 44 47 50 51 58 61 63 71 72 77 84 85
2 5 6 9 10 11 12 14 17 19 21 22 29 32 35 37 38 39 42 43 44 47 51 53 55 56 59 61 62 63 64 65 66 67 69 73 74 80 82 84
1 2 4 8 10 11 13 14 20 23 28 30 35 37 38 43 44 48 58 69 71 75 76 77 78 83 84 85
0 1 2 6 7 10 12 14 15 19 21 22 23 27 29 33 34 35 36 39 40 41 45 46 49 51 52 53 56 57 58 59 60 62 66 69 72 73 74 75 76 78 80 81 84
1 2 3 7 8 10 11 12 19 20 21 22 23 24 26 28 29 31 32 33 34 36 38 42 43 44 45 46 47 48 49 50 51 52 54 55 57 59 61 65 67 68 71 72 73 74 75 80 85
2 3 9 10 11 12 15 17 18 21 24 27 30 35 37 39 41 44 46 48 53 54 56 58 59 62 66 70 74 76 77 81 85
1 3 4 6 8 13 16 18 21 22 23 26 27 28 31 32 33 34 35 37 38 40 42 43 44 46 47 53 54 58 61 62 64 67 68 72 73 74 75 81 85
1 4 7 8 10 15 17 18 19 20 22 25 28 29 33 35 38 41 44 45 47 48 51 52 55 56 61 66 67 73 77 79 81 82 83 85
0 1 2 3 6 9 10 13 14 15 17 18 20 21 28 31 32 35 36 39 41 44 45 47 49 50 51 53 54 55 61 64 65 66 67 68 70 72 73 76 77 78 81 83 85
1 3 8 9 13 16 17 18 20 24 25 26 27 28 30 31 34 37 46 51 52 53 54 56 57 58 62 63 64 65 67 68 70 71 72 73 74 75 76 78 79 80 82 85
0 3 6 7 8 9 11 18 19 23 25 27 31 38 40 42 43 46 48 49 50 51 52 54 57 58 61 63 66 70 75 77 80 83
9 11 13 14 21 23 24 26 27 28 32 35 36 37 38 40 42 44 46 48 49 50 54 55 58 61 62 67 68 70 73 75 77 78 79 80 81
0 1 3 4 5 9 10 13 14 18 20 23 25 29 30 33 36 37 42 45 51 52 56 57 58 60 61 62 63 64 65 68 71 72 73 77 78 79 82 83 84 85
0 1 2 3 5 8 9 11 17 19 20 23 24 25 32 37 38 40 46 50 51 52 56 61 62 63 64 66 74 75 76 77 78 79 81 83
0 2 9 12 16 18 20 21 22 23 25 30 31 32 33 37 38 39 41 43 44 47 48 52 55 60 61 64 68 69 71 74 77 85
2 4 5 6 7 8 9 12 13 15 17 18 21 26 30 32 33 39 40 44 47 48 53 54 58 60 61 63 64 67 70 72 77 80 82 83
0 2 3 4 6 8 9 10 11 16 19 23 26 28 29 32 35 37 45 46 48 50 57 61 62 64 65 66 68 70 73 74 76 78 80 81 82 85
0 1 3 6 7 8 12 14 18 20 22 23 24 28 32 35 40 41 43 46 48 49 50 55 56 57 58 63 67 69 70 73 74 79 80 82 83 84 85
0 1 4 5 7 8 9 10 11 12 15 18 20 22 25 27 28 29 30 31 34 36 43 44 48 49 52 54 56 58 62 63 64 66 67 69 70 75 76 79 81
1 4 5 7 12 13 17 18 20 21 26 28 29 34 36 38 39 40 41 43 48 51 53 54 55 57 60 61 62 63 65 66 70 73 74 75 76 80 81 83 85
0 1 2 3 7 8 11 13 14 17 18 20 23 32 33 39 42 43 46 48 52 53 56 60 61 65 66 67 69 74 76 82 84
1 2 9 11 12 15 16 17 19 20 21 22 25 30 31 36 37 41 42 45 46 48 52 55 56 60 62 63 64 65 69 70 75 77 78 79 80 81 82
0 1 4 5 7 9 10 11 13 14 17 18 22 25 26 32 33 35 39 40 44 45 47 48 54 55 59 60 61 62 64 67 69 70 71 75 76 80 82 83 85
0 2 5 10 14 15 16 19 20 23 25 26 27 28 30 35 40 41 43 51 52 54 63 64 65 68 69 70 74 76 77 82 85
1 3 4 5 6 13 14 15 16 18 20 21 24 25 27 28 33 39 40 43 46 47 48 49 50 52 53 55 58 63 67 69 70 71 72 73 74 80 85
2 5 11 13 14 15 17 19 22 28 29 33 34 36 38 40 41 42 43 44 48 52 53 54 57 59 64 67 68 69 71 73 74 75 76 77 79 81 84 85
0 1 2 4 5 6 7 8 11 13 14 17 20 24 25 27 29 31 33 36 37 38 39 42 43 44 50 51 52 53 59 60 65 67 72 73 75 78 80 81 82 85
0 1 7 8 9 12 14 17 19 21 22 28 31 33 35 37 39 42 43 49 51 52 54 55 56 57 58 59 60 61 62 65 68 72 73 75 79 83 84
0 3 6 12 13 15 18 20 24 25 26 34 35 39 40 41 43 45 47 49 51 55 57 58 59 63 65 70 75 76 77 79 80 81 82 83 84 85
1 2 3 8 11 14 15 16 18 20 24 28 31 32 33 34 37 38 39 40 41 42 46 47 53 54 56 62 63 64 72 76 77 78 79 81 82 85
0 2 4 5 7 8 10 11 12 14 15 16 18 19 20 21 22 25 28 29 32 36 39 40 49 59 60 63 66 69 73 75 76 80 83
0 3 4 5 7 10 11 12 13 17 18 21 22 26 30 35 36 42 47 50 53 54 55 59 60 62 65 66 67 68 72 74 77 82 83 84 85
1 2 5 8 11 13 17 18 19 20 23 24 25 27 30 31 34 35 38 43 47 50 52 54 55 56 57 58 60 61 62 63 72 74 75 76 77 79 80 81 83
3 4 5 9 10 11 13 14 15 18 20 21 22 28 29 36 38 42 43 45 46 48 49 54 56 58 61 63 65 69 73 75 77 79 83 84
1 3 8 9 10 12 16 18 19 21 24 25 28 29 30 31 32 33 34 35 36 38 39 47 49 50 51 54 55 56 60 61 63 64 65 66 67 72 73 75 78 79 80 81 82 85
0 2 3 4 5 9 10 12 17 18 22 24 25 31 32 38 41 42 44 47 48 52 53 54 56 58 59 60 63 65 66 67 69 72 75 76 77 80 81 83 85
0 3 7 8 10 11 12 13 14 18 22 24 25 27 30 31 38 40 45 46 48 51 52 53 60 61 62 63 65 68 69 73 77 78 81 82 83 84
2 7 14 15 17 18 21 22 23 24 26 27 33 37 40 41 42 48 50 53 55 57 61 62 65 66 76 82
0 2 3 6 10 11 17 18 21 23 24 26 27 28 32 34 35 37 38 39 40 41 46 49 50 54 58 59 70 71 73 74 77 79 83
1 2 4 5 7 12 13 15 17 19 20 22 23 29 33 34 38 39 40 43 45 49 50 51 54 57 59 61 62 63 66 67 68 71 73 76 78 79 82 83
0 2 3 4 5 7 12 18 19 20 22 23 24 25 29 32 33 36 37 39 41 43 45 46 47 48 49 52 53 56 58 62 68 69 72 73 75 78 80 83
1 2 3 4 8 11 12 13 15 18 21 22 25 28 31 33 35 36 38 41 42 45 46 48 51 57 58 61 63 68 69 71 73 76 81 82 85
0 1 4 7 8 9 12 13 15 17 19 21 23 26 27 31 32 34 35 41 43 46 47 48 49 54 57 58 65 67 69 71 77 79 82 84
3 4 5 7 8 10 17 18 23 24 26 30 31 33 39 41 42 46 51 53 55 56 59 60 61 63 64 65 69 71 73 79 80 84 85
3 5 7 8 11 14 16 17 19 20 23 24 25 26 29 31 32 38 41 42 46 47 49 52 54 55 56 63 66 68 69 70 71 72 74 76 78 79 81 82 83 85
1 7 8 9 11 15 17 18 19 36 39 40 41 42 44 45 49 52 53 57 62 64 67 70 71 73 76 78 81 82 83 84 85
0 1 3 8 9 11 17 26 28 29 33 34 35 36 40 41 44 45 46 48 49 50 57 61 62 63 65 66 68 70 71 75 77 78 81 85
1 2 4 5 6 12 14 15 18 20 21 22 24 25 26 27 28 29 30 33 34 36 41 46 47 48 50 51 53 55 57 60 65 66 67 69 70 71 72 79 81 83 84
1 3 4 9 10 11 13 15 17 19 20 23 25 26 27 30 32 33 35 36 41 43 45 46 50 51 53 54 59 60 67 70 71 74 76 77 79 85
3 8 10 12 14 15 23 24 26 27 29 31 32 33 35 37 38 42 43 44 46 47 48 49 50 53 55 57 58 60 64 67 68 71 73 74 75 77 80 83 84 85
3 4 5 9 11 13 15 20 22 23 26 27 28 29 30 32 35 36 37 39 43 48 57 59 63 66 70 71 74 75 77 78 80 85
0 7 8 9 10 11 12 15 18 22 23 26 30 33 34 35 37 40 41 42 45 47 48 49 50 51 56 57 60 61 66 70 71 73 79 80 84 85
2 3 4 6 11 15 17 19 21 22 24 27 30 32 33 34 44 45 48 49 51 53 58 60 61 64 65 67 70 73 75 80
1 3 5 6 7 8 10 11 12 13 15 18 20 21 22 23 25 29 31 32 34 36 38 39 40 45 48 49 53 56 59 61 62 63 66 68 69 70 72 74 81
2 7 9 10 11 12 18 20 22 23 25 26 28 30 37 39 41 45 50 53 54 55 58 60 63 67 70 72 73 76 77 80 82 85
0 2 3 6 8 9 11 15 16 17 28 31 32 34 35 36 37 38 39 44 47 49 50 54 55 56 57 58 61 67 72 73 80 83 85
0 1 3 7 8 9 10 12 19 22 23 24 25 29 30 31 32 33 35 36 37 38 42 52 58 59 60 61 62 64 65 66 67 68 74 77 78 80 81 83
0 1 5 6 9 10 11 13 14 16 18 23 26 28 36 38 39 52 53 55 56 57 58 59 60 61 62 63 64 65 73 75 76 77 78 79 80 82 83 85
0 3 7 9 10 12 13 14 17 18 20 22 23 26 29 38 40 41 43 45 46 48 49 54 58 61 67 68 69 75 78 80 81 84
2 3 5 12 15 17 18 20 21 22 23 25 26 30 31 33 38 39 40 41 44 47 48 50 52 53 54 55 57 59 63 65 66 68 69 71 74 77 82 84 85
2 4 5 6 9 12 15 17 18 19 20 23 27 28 30 31 33 34 37 38 39 45 46 52 58 62 63 64 67 70 73 75 82
0 1 4 6 8 16 17 18 20 23 24 25 27 32 33 35 36 39 40 41 42 44 46 47 48 49 54 60 63 64 66 71 72 74 77 78 81 82 84
0 1 6 8 11 12 13 16 17 19 22 23 27 30 32 33 34 36 37 39 42 43 44 46 49 51 53 55 58 59 62 68 71 80 81 82 83
1 2 6 9 10 11 14 16 19 21 22 24 25 26 27 28 29 35 37 39 42 43 45 46 47 49 50 52 56 60 62 63 64 68 70 71 73 75 78 79 80 81 84
1 5 6 7 9 11 12 13 16 17 22 23 25 26 27 30 35 40 43 48 50 53 54 58 59 60 64 70 71 72 75 77 85
5 11 21 23 25 26 27 31 32 35 39 41 42 43 46 47 48 52 53 56 57 58 61 62 65 71 77 81 82 84 85
3 7 8 9 10 15 17 18 23 24 25 29 30 31 33 35 36 38 40 42 44 46 48 49 54 57 63 64 65 66 68 69 70 71 72 76 77 81 83
0 3 5 6 12 13 17 19 20 21 22 25 27 30 32 33 35 39 40 42 43 46 48 49 50 55 58 59 60 61 67 70 72 75 76 77 79 80 83 85
1 8 10 13 15 21 23 26 29 30 31 34 35 36 37 40 42 43 45 48 50 51 53 55 56 58 59 68 71 73 74 75 76 79 85
2 3 4 6 8 10 13 16 21 22 24 26 27 29 31 33 36 41 42 44 45 46 47 49 50 52 53 54 58 59 61 63 69 70 71 76 80 81 84
1 5 6 7 8 12 13 14 15 16 17 26 31 34 39 41 42 45 47 50 56 57 59 61 63 65 72 73 75 77 79 83 85
1 2 9 12 13 14 16 18 19 20 21 22 23 26 28 30 31 33 36 37 38 39 40 42 43 45 48 49 55 57 58 59 60 62 63 64 65 68 69 71 73 78 79 81 82 84
